BAYES
441
2 2 2 2 2 2 2 2 2 2 2 2 2 2 2 2 2 2 2 2 2 2 2 2 2 2 2 2 2 2 2 2 2 2 2 2 2 2 2 2 2 2 2 2 2 2 2 2 2 2 2 2 2 2 2 2 2 2 2 2 2 2 2 2 2 2 2 2 2 2 2 2 2 2 2 2 2 2 2 2 2 2 2 2 2 2 2 2 2 2 2 2 2 2 2 2 2 2 2 2 2 2 2 2 2 2 2 2 2 2 2 2 2 2 2 2 2 2 2 2 2 2 2 2 2 2 2 2 2 2 2 2 2 2 2 2 2 2 2 2 2 2 2 2 2 2 2 2 2 2 2 2 2 2 2 2 2 2 2 2 2 2 2 2 2 2 2 2 2 2 2 2 2 2 2 2 2 2 2 2 2 2 2 2 2 2 2 2 2 2 2 2 2 2 2 2 2 2 2 2 2 2 2 2 2 2 2 2 2 2 2 2 2 2 2 2 2 2 2 2 2 2 2 2 2 2 2 2 2 2 2 2 2 2 2 2 2 2 2 2 2 2 2 2 2 2 2 2 2 2 2 2 2 2 2 2 2 2 2 2 2 2 2 2 2 2 2 2 2 2 2 2 2 2 2 2 2 2 2 2 2 2 2 2 2 2 2 2 2 2 2 2 2 2 2 2 2 2 2 2 2 2 2 2 2 2 2 2 2 2 2 2 2 2 2 2 2 2 2 2 2 2 2 2 2 2 2 2 2 2 2 2 2 2 2 2 2 2 2 2 2 2 2 2 2 2 2 2 2 2 2 2 2 2 2 2 2 2 2 2 2 2 2 2 2 2 2 2 2 2 2 2 2 2 2 2 2 2 2 2 2 2 2 2 2 2 2 2 2 2 2 2 2 2 2 2 2 2 2 2 2 2 2 2 2 2 2 2 2 2 2 2 2 2 2 2 2 2 2 2 2 2 2 2 2 2 2 2 2 2 2 2 2 2 2 2 2 2 2 2 2
441
1 0
2 0 1
2 1 2
2 2 3
2 3 4
2 4 5
2 5 6
2 6 7
2 7 8
2 8 9
2 9 10
2 10 11
2 11 12
2 12 13
2 13 14
2 14 15
2 15 16
2 16 17
2 17 18
2 18 19
2 19 20
2 0 21
3 1 21 22
3 2 22 23
3 3 23 24
3 4 24 25
3 5 25 26
3 6 26 27
3 7 27 28
3 8 28 29
3 9 29 30
3 10 30 31
3 11 31 32
3 12 32 33
3 13 33 34
3 14 34 35
3 15 35 36
3 16 36 37
3 17 37 38
3 18 38 39
3 19 39 40
3 20 40 41
2 21 42
3 22 42 43
3 23 43 44
3 24 44 45
3 25 45 46
3 26 46 47
3 27 47 48
3 28 48 49
3 29 49 50
3 30 50 51
3 31 51 52
3 32 52 53
3 33 53 54
3 34 54 55
3 35 55 56
3 36 56 57
3 37 57 58
3 38 58 59
3 39 59 60
3 40 60 61
3 41 61 62
2 42 63
3 43 63 64
3 44 64 65
3 45 65 66
3 46 66 67
3 47 67 68
3 48 68 69
3 49 69 70
3 50 70 71
3 51 71 72
3 52 72 73
3 53 73 74
3 54 74 75
3 55 75 76
3 56 76 77
3 57 77 78
3 58 78 79
3 59 79 80
3 60 80 81
3 61 81 82
3 62 82 83
2 63 84
3 64 84 85
3 65 85 86
3 66 86 87
3 67 87 88
3 68 88 89
3 69 89 90
3 70 90 91
3 71 91 92
3 72 92 93
3 73 93 94
3 74 94 95
3 75 95 96
3 76 96 97
3 77 97 98
3 78 98 99
3 79 99 100
3 80 100 101
3 81 101 102
3 82 102 103
3 83 103 104
2 84 105
3 85 105 106
3 86 106 107
3 87 107 108
3 88 108 109
3 89 109 110
3 90 110 111
3 91 111 112
3 92 112 113
3 93 113 114
3 94 114 115
3 95 115 116
3 96 116 117
3 97 117 118
3 98 118 119
3 99 119 120
3 100 120 121
3 101 121 122
3 102 122 123
3 103 123 124
3 104 124 125
2 105 126
3 106 126 127
3 107 127 128
3 108 128 129
3 109 129 130
3 110 130 131
3 111 131 132
3 112 132 133
3 113 133 134
3 114 134 135
3 115 135 136
3 116 136 137
3 117 137 138
3 118 138 139
3 119 139 140
3 120 140 141
3 121 141 142
3 122 142 143
3 123 143 144
3 124 144 145
3 125 145 146
2 126 147
3 127 147 148
3 128 148 149
3 129 149 150
3 130 150 151
3 131 151 152
3 132 152 153
3 133 153 154
3 134 154 155
3 135 155 156
3 136 156 157
3 137 157 158
3 138 158 159
3 139 159 160
3 140 160 161
3 141 161 162
3 142 162 163
3 143 163 164
3 144 164 165
3 145 165 166
3 146 166 167
2 147 168
3 148 168 169
3 149 169 170
3 150 170 171
3 151 171 172
3 152 172 173
3 153 173 174
3 154 174 175
3 155 175 176
3 156 176 177
3 157 177 178
3 158 178 179
3 159 179 180
3 160 180 181
3 161 181 182
3 162 182 183
3 163 183 184
3 164 184 185
3 165 185 186
3 166 186 187
3 167 187 188
2 168 189
3 169 189 190
3 170 190 191
3 171 191 192
3 172 192 193
3 173 193 194
3 174 194 195
3 175 195 196
3 176 196 197
3 177 197 198
3 178 198 199
3 179 199 200
3 180 200 201
3 181 201 202
3 182 202 203
3 183 203 204
3 184 204 205
3 185 205 206
3 186 206 207
3 187 207 208
3 188 208 209
2 189 210
3 190 210 211
3 191 211 212
3 192 212 213
3 193 213 214
3 194 214 215
3 195 215 216
3 196 216 217
3 197 217 218
3 198 218 219
3 199 219 220
3 200 220 221
3 201 221 222
3 202 222 223
3 203 223 224
3 204 224 225
3 205 225 226
3 206 226 227
3 207 227 228
3 208 228 229
3 209 229 230
2 210 231
3 211 231 232
3 212 232 233
3 213 233 234
3 214 234 235
3 215 235 236
3 216 236 237
3 217 237 238
3 218 238 239
3 219 239 240
3 220 240 241
3 221 241 242
3 222 242 243
3 223 243 244
3 224 244 245
3 225 245 246
3 226 246 247
3 227 247 248
3 228 248 249
3 229 249 250
3 230 250 251
2 231 252
3 232 252 253
3 233 253 254
3 234 254 255
3 235 255 256
3 236 256 257
3 237 257 258
3 238 258 259
3 239 259 260
3 240 260 261
3 241 261 262
3 242 262 263
3 243 263 264
3 244 264 265
3 245 265 266
3 246 266 267
3 247 267 268
3 248 268 269
3 249 269 270
3 250 270 271
3 251 271 272
2 252 273
3 253 273 274
3 254 274 275
3 255 275 276
3 256 276 277
3 257 277 278
3 258 278 279
3 259 279 280
3 260 280 281
3 261 281 282
3 262 282 283
3 263 283 284
3 264 284 285
3 265 285 286
3 266 286 287
3 267 287 288
3 268 288 289
3 269 289 290
3 270 290 291
3 271 291 292
3 272 292 293
2 273 294
3 274 294 295
3 275 295 296
3 276 296 297
3 277 297 298
3 278 298 299
3 279 299 300
3 280 300 301
3 281 301 302
3 282 302 303
3 283 303 304
3 284 304 305
3 285 305 306
3 286 306 307
3 287 307 308
3 288 308 309
3 289 309 310
3 290 310 311
3 291 311 312
3 292 312 313
3 293 313 314
2 294 315
3 295 315 316
3 296 316 317
3 297 317 318
3 298 318 319
3 299 319 320
3 300 320 321
3 301 321 322
3 302 322 323
3 303 323 324
3 304 324 325
3 305 325 326
3 306 326 327
3 307 327 328
3 308 328 329
3 309 329 330
3 310 330 331
3 311 331 332
3 312 332 333
3 313 333 334
3 314 334 335
2 315 336
3 316 336 337
3 317 337 338
3 318 338 339
3 319 339 340
3 320 340 341
3 321 341 342
3 322 342 343
3 323 343 344
3 324 344 345
3 325 345 346
3 326 346 347
3 327 347 348
3 328 348 349
3 329 349 350
3 330 350 351
3 331 351 352
3 332 352 353
3 333 353 354
3 334 354 355
3 335 355 356
2 336 357
3 337 357 358
3 338 358 359
3 339 359 360
3 340 360 361
3 341 361 362
3 342 362 363
3 343 363 364
3 344 364 365
3 345 365 366
3 346 366 367
3 347 367 368
3 348 368 369
3 349 369 370
3 350 370 371
3 351 371 372
3 352 372 373
3 353 373 374
3 354 374 375
3 355 375 376
3 356 376 377
2 357 378
3 358 378 379
3 359 379 380
3 360 380 381
3 361 381 382
3 362 382 383
3 363 383 384
3 364 384 385
3 365 385 386
3 366 386 387
3 367 387 388
3 368 388 389
3 369 389 390
3 370 390 391
3 371 391 392
3 372 392 393
3 373 393 394
3 374 394 395
3 375 395 396
3 376 396 397
3 377 397 398
2 378 399
3 379 399 400
3 380 400 401
3 381 401 402
3 382 402 403
3 383 403 404
3 384 404 405
3 385 405 406
3 386 406 407
3 387 407 408
3 388 408 409
3 389 409 410
3 390 410 411
3 391 411 412
3 392 412 413
3 393 413 414
3 394 414 415
3 395 415 416
3 396 416 417
3 397 417 418
3 398 418 419
2 399 420
3 400 420 421
3 401 421 422
3 402 422 423
3 403 423 424
3 404 424 425
3 405 425 426
3 406 426 427
3 407 427 428
3 408 428 429
3 409 429 430
3 410 430 431
3 411 431 432
3 412 432 433
3 413 433 434
3 414 434 435
3 415 435 436
3 416 436 437
3 417 437 438
3 418 438 439
3 419 439 440

2
0.772987 0.227013
4
0.0 1.0 1.0 0.0
4
0.415353 0.584647 0.868981 0.131019
4
1.0 0.0 0.0 1.0
4
1.0 0.0 0.0 1.0
4
1.0 0.0 0.0 1.0
4
0.924124 0.0758758 0.53325 0.46675
4
0.12811 0.87189 0.422393 0.577607
4
1.0 0.0 0.0 1.0
4
0.0 1.0 1.0 0.0
4
1.0 0.0 0.0 1.0
4
0.0 1.0 1.0 0.0
4
0.275385 0.724615 0.796925 0.203075
4
0.574116 0.425884 0.569912 0.430088
4
0.0 1.0 1.0 0.0
4
0.0 1.0 1.0 0.0
4
1.0 0.0 0.0 1.0
4
0.0 1.0 1.0 0.0
4
0.389001 0.610999 0.283916 0.716084
4
0.313125 0.686875 0.817167 0.182833
4
0.441235 0.558765 0.239559 0.760441
4
1.0 0.0 0.0 1.0
8
0.886689 0.113311 0.285658 0.714342 0.509907 0.490093 0.435276 0.564724
8
0.0 1.0 0.0 1.0 1.0 0.0 0.0 1.0
8
1.0 0.0 1.0 0.0 1.0 0.0 0.0 1.0
8
1.0 0.0 1.0 0.0 0.0 1.0 1.0 0.0
8
0.0 1.0 1.0 0.0 0.0 1.0 0.0 1.0
8
0.0 1.0 1.0 0.0 0.0 1.0 1.0 0.0
8
1.0 0.0 0.0 1.0 1.0 0.0 1.0 0.0
8
1.0 0.0 1.0 0.0 1.0 0.0 0.0 1.0
8
0.0 1.0 1.0 0.0 0.0 1.0 0.0 1.0
8
0.94266 0.0573401 0.252849 0.747151 0.0761104 0.92389 0.993821 0.00617915
8
0.0 1.0 1.0 0.0 0.0 1.0 0.0 1.0
8
0.0 1.0 1.0 0.0 1.0 0.0 0.0 1.0
8
0.0480171 0.951983 0.0721589 0.927841 0.343116 0.656884 0.732996 0.267004
8
0.0 1.0 1.0 0.0 1.0 0.0 1.0 0.0
8
0.0 1.0 1.0 0.0 1.0 0.0 0.0 1.0
8
0.0 1.0 0.0 1.0 0.0 1.0 1.0 0.0
8
0.0 1.0 1.0 0.0 1.0 0.0 1.0 0.0
8
1.0 0.0 1.0 0.0 1.0 0.0 0.0 1.0
8
0.0 1.0 1.0 0.0 0.0 1.0 0.0 1.0
8
1.0 0.0 0.0 1.0 0.0 1.0 1.0 0.0
4
0.0 1.0 1.0 0.0
8
1.0 0.0 0.0 1.0 0.0 1.0 1.0 0.0
8
0.55327 0.44673 0.216277 0.783723 0.768845 0.231155 0.308238 0.691762
8
1.0 0.0 1.0 0.0 0.0 1.0 0.0 1.0
8
1.0 0.0 0.0 1.0 1.0 0.0 1.0 0.0
8
0.0 1.0 1.0 0.0 0.0 1.0 1.0 0.0
8
0.0 1.0 1.0 0.0 0.0 1.0 1.0 0.0
8
0.0 1.0 0.0 1.0 1.0 0.0 0.0 1.0
8
1.0 0.0 1.0 0.0 0.0 1.0 1.0 0.0
8
0.643193 0.356807 0.13256 0.86744 0.309798 0.690202 0.270164 0.729836
8
1.0 0.0 0.0 1.0 1.0 0.0 1.0 0.0
8
1.0 0.0 0.0 1.0 1.0 0.0 0.0 1.0
8
0.0 1.0 1.0 0.0 1.0 0.0 1.0 0.0
8
1.0 0.0 1.0 0.0 0.0 1.0 1.0 0.0
8
0.0 1.0 1.0 0.0 0.0 1.0 1.0 0.0
8
0.844443 0.155557 0.987919 0.0120808 0.11055 0.88945 0.114607 0.885393
8
0.0 1.0 1.0 0.0 0.0 1.0 1.0 0.0
8
0.104353 0.895647 0.502942 0.497058 0.800632 0.199368 0.716837 0.283163
8
0.0 1.0 1.0 0.0 0.0 1.0 0.0 1.0
8
1.0 0.0 1.0 0.0 1.0 0.0 0.0 1.0
8
0.84382 0.15618 0.290649 0.709351 0.0788828 0.921117 0.699179 0.300821
4
0.0 1.0 1.0 0.0
8
0.0 1.0 0.0 1.0 1.0 0.0 1.0 0.0
8
1.0 0.0 0.0 1.0 0.0 1.0 1.0 0.0
8
1.0 0.0 1.0 0.0 0.0 1.0 1.0 0.0
8
1.0 0.0 1.0 0.0 0.0 1.0 1.0 0.0
8
0.0 1.0 0.0 1.0 0.0 1.0 1.0 0.0
8
0.0 1.0 0.0 1.0 1.0 0.0 0.0 1.0
8
0.0 1.0 0.0 1.0 0.0 1.0 1.0 0.0
8
0.0 1.0 1.0 0.0 1.0 0.0 1.0 0.0
8
0.0 1.0 0.0 1.0 0.0 1.0 1.0 0.0
8
1.0 0.0 0.0 1.0 0.0 1.0 0.0 1.0
8
0.0 1.0 0.0 1.0 0.0 1.0 1.0 0.0
8
0.0 1.0 1.0 0.0 0.0 1.0 0.0 1.0
8
0.0 1.0 0.0 1.0 1.0 0.0 1.0 0.0
8
0.275015 0.724985 0.107012 0.892988 0.735333 0.264667 0.300204 0.699796
8
0.0 1.0 1.0 0.0 1.0 0.0 0.0 1.0
8
0.0 1.0 1.0 0.0 0.0 1.0 0.0 1.0
8
1.0 0.0 0.0 1.0 0.0 1.0 1.0 0.0
8
0.495685 0.504315 0.965409 0.0345907 0.541457 0.458543 0.232906 0.767094
8
0.0 1.0 1.0 0.0 1.0 0.0 0.0 1.0
8
0.457581 0.542419 0.0346446 0.965355 0.903807 0.096193 0.192914 0.807086
4
1.0 0.0 0.0 1.0
8
0.339094 0.660906 0.511153 0.488847 0.208261 0.791739 0.543732 0.456268
8
0.0 1.0 1.0 0.0 1.0 0.0 0.0 1.0
8
0.0 1.0 0.0 1.0 1.0 0.0 0.0 1.0
8
0.173409 0.826591 0.519081 0.480919 0.0480573 0.951943 0.315437 0.684563
8
1.0 0.0 1.0 0.0 0.0 1.0 1.0 0.0
8
1.0 0.0 0.0 1.0 0.0 1.0 0.0 1.0
8
1.0 0.0 0.0 1.0 0.0 1.0 1.0 0.0
8
1.0 0.0 1.0 0.0 1.0 0.0 0.0 1.0
8
0.428421 0.571579 0.80206 0.19794 0.101596 0.898404 0.636421 0.363579
8
0.916748 0.0832524 0.809831 0.190169 0.298765 0.701235 0.964805 0.0351951
8
0.0 1.0 1.0 0.0 1.0 0.0 0.0 1.0
8
1.0 0.0 1.0 0.0 1.0 0.0 0.0 1.0
8
0.0 1.0 1.0 0.0 1.0 0.0 0.0 1.0
8
0.0 1.0 1.0 0.0 0.0 1.0 1.0 0.0
8
1.0 0.0 1.0 0.0 0.0 1.0 1.0 0.0
8
1.0 0.0 1.0 0.0 0.0 1.0 1.0 0.0
8
0.0323173 0.967683 0.902787 0.0972129 0.716856 0.283144 0.989594 0.010406
8
1.0 0.0 0.0 1.0 0.0 1.0 0.0 1.0
8
0.397462 0.602538 0.292318 0.707682 0.92877 0.07123 0.181815 0.818185
8
0.333538 0.666462 0.0449867 0.955013 0.721308 0.278692 0.529805 0.470195
4
1.0 0.0 0.0 1.0
8
0.0 1.0 1.0 0.0 0.0 1.0 0.0 1.0
8
1.0 0.0 0.0 1.0 1.0 0.0 0.0 1.0
8
0.0 1.0 1.0 0.0 0.0 1.0 1.0 0.0
8
0.0 1.0 0.0 1.0 1.0 0.0 0.0 1.0
8
0.0 1.0 1.0 0.0 1.0 0.0 1.0 0.0
8
1.0 0.0 0.0 1.0 0.0 1.0 0.0 1.0
8
1.0 0.0 0.0 1.0 1.0 0.0 1.0 0.0
8
1.0 0.0 1.0 0.0 0.0 1.0 1.0 0.0
8
0.750451 0.249549 0.414471 0.585529 0.0498783 0.950122 0.314793 0.685207
8
1.0 0.0 0.0 1.0 1.0 0.0 0.0 1.0
8
0.938046 0.061954 0.0969878 0.903012 0.577632 0.422368 0.275426 0.724574
8
1.0 0.0 1.0 0.0 0.0 1.0 1.0 0.0
8
1.0 0.0 0.0 1.0 1.0 0.0 0.0 1.0
8
0.748687 0.251313 0.246006 0.753994 0.127474 0.872526 0.92439 0.07561
8
0.0 1.0 0.0 1.0 0.0 1.0 1.0 0.0
8
0.584338 0.415662 0.336579 0.663421 0.105228 0.894772 0.36682 0.63318
8
0.987456 0.0125435 0.304866 0.695134 0.0222418 0.977758 0.565088 0.434912
8
1.0 0.0 0.0 1.0 1.0 0.0 1.0 0.0
8
1.0 0.0 1.0 0.0 0.0 1.0 0.0 1.0
8
0.0 1.0 0.0 1.0 1.0 0.0 1.0 0.0
4
0.0 1.0 1.0 0.0
8
0.0 1.0 1.0 0.0 1.0 0.0 0.0 1.0
8
1.0 0.0 0.0 1.0 1.0 0.0 1.0 0.0
8
0.679154 0.320846 0.746117 0.253883 0.466345 0.533655 0.259446 0.740554
8
1.0 0.0 0.0 1.0 0.0 1.0 1.0 0.0
8
0.421069 0.578931 0.544232 0.455768 0.324158 0.675842 0.892745 0.107255
8
1.0 0.0 0.0 1.0 0.0 1.0 1.0 0.0
8
0.0 1.0 1.0 0.0 1.0 0.0 1.0 0.0
8
0.0 1.0 0.0 1.0 1.0 0.0 1.0 0.0
8
1.0 0.0 1.0 0.0 0.0 1.0 0.0 1.0
8
0.0 1.0 0.0 1.0 0.0 1.0 1.0 0.0
8
1.0 0.0 1.0 0.0 0.0 1.0 0.0 1.0
8
0.435776 0.564224 0.787823 0.212177 0.33999 0.66001 0.123741 0.876259
8
0.0 1.0 1.0 0.0 0.0 1.0 1.0 0.0
8
0.0623483 0.937652 0.312142 0.687858 0.1754 0.8246 0.340834 0.659166
8
1.0 0.0 0.0 1.0 0.0 1.0 0.0 1.0
8
0.0 1.0 0.0 1.0 0.0 1.0 1.0 0.0
8
1.0 0.0 0.0 1.0 1.0 0.0 0.0 1.0
8
1.0 0.0 0.0 1.0 0.0 1.0 1.0 0.0
8
1.0 0.0 1.0 0.0 0.0 1.0 1.0 0.0
8
1.0 0.0 1.0 0.0 0.0 1.0 1.0 0.0
4
0.0 1.0 1.0 0.0
8
1.0 0.0 0.0 1.0 1.0 0.0 1.0 0.0
8
1.0 0.0 0.0 1.0 0.0 1.0 1.0 0.0
8
0.797221 0.202779 0.617272 0.382728 0.407568 0.592432 0.653884 0.346116
8
0.0 1.0 1.0 0.0 0.0 1.0 1.0 0.0
8
1.0 0.0 0.0 1.0 0.0 1.0 0.0 1.0
8
1.0 0.0 1.0 0.0 1.0 0.0 0.0 1.0
8
1.0 0.0 1.0 0.0 0.0 1.0 0.0 1.0
8
0.0 1.0 0.0 1.0 1.0 0.0 0.0 1.0
8
0.0 1.0 1.0 0.0 0.0 1.0 1.0 0.0
8
1.0 0.0 1.0 0.0 0.0 1.0 1.0 0.0
8
0.0 1.0 0.0 1.0 1.0 0.0 0.0 1.0
8
1.0 0.0 1.0 0.0 0.0 1.0 1.0 0.0
8
0.0 1.0 0.0 1.0 1.0 0.0 0.0 1.0
8
1.0 0.0 0.0 1.0 0.0 1.0 0.0 1.0
8
0.0 1.0 1.0 0.0 1.0 0.0 1.0 0.0
8
0.0 1.0 1.0 0.0 1.0 0.0 0.0 1.0
8
0.0 1.0 1.0 0.0 0.0 1.0 0.0 1.0
8
0.0 1.0 0.0 1.0 0.0 1.0 1.0 0.0
8
0.0 1.0 0.0 1.0 0.0 1.0 1.0 0.0
8
1.0 0.0 1.0 0.0 0.0 1.0 0.0 1.0
4
1.0 0.0 0.0 1.0
8
0.0 1.0 0.0 1.0 0.0 1.0 1.0 0.0
8
0.0 1.0 1.0 0.0 0.0 1.0 1.0 0.0
8
0.337739 0.662261 0.662047 0.337953 0.217999 0.782001 0.566462 0.433538
8
0.0 1.0 0.0 1.0 1.0 0.0 0.0 1.0
8
0.958238 0.0417621 0.459978 0.540022 0.931851 0.0681485 0.241713 0.758287
8
0.0 1.0 0.0 1.0 1.0 0.0 0.0 1.0
8
1.0 0.0 0.0 1.0 1.0 0.0 1.0 0.0
8
1.0 0.0 0.0 1.0 0.0 1.0 0.0 1.0
8
1.0 0.0 0.0 1.0 1.0 0.0 1.0 0.0
8
0.416508 0.583492 0.446308 0.553692 0.181979 0.818021 0.667125 0.332875
8
1.0 0.0 1.0 0.0 0.0 1.0 0.0 1.0
8
0.134091 0.865909 0.698066 0.301934 0.0141697 0.98583 0.134037 0.865963
8
0.35187 0.64813 0.0326121 0.967388 0.132103 0.867897 0.571609 0.428391
8
1.0 0.0 1.0 0.0 0.0 1.0 0.0 1.0
8
1.0 0.0 1.0 0.0 0.0 1.0 0.0 1.0
8
1.0 0.0 0.0 1.0 0.0 1.0 0.0 1.0
8
1.0 0.0 1.0 0.0 0.0 1.0 0.0 1.0
8
0.0 1.0 0.0 1.0 1.0 0.0 0.0 1.0
8
0.0 1.0 1.0 0.0 1.0 0.0 0.0 1.0
8
0.0 1.0 1.0 0.0 1.0 0.0 1.0 0.0
4
0.0 1.0 1.0 0.0
8
0.0 1.0 0.0 1.0 1.0 0.0 1.0 0.0
8
0.193109 0.806891 0.82033 0.17967 0.426398 0.573602 0.781164 0.218836
8
0.478781 0.521219 0.386906 0.613094 0.770912 0.229088 0.665255 0.334745
8
0.0 1.0 0.0 1.0 1.0 0.0 1.0 0.0
8
0.0 1.0 1.0 0.0 0.0 1.0 1.0 0.0
8
1.0 0.0 0.0 1.0 0.0 1.0 1.0 0.0
8
1.0 0.0 0.0 1.0 1.0 0.0 0.0 1.0
8
0.296078 0.703922 0.576754 0.423246 0.632379 0.367621 0.722477 0.277523
8
1.0 0.0 1.0 0.0 1.0 0.0 0.0 1.0
8
0.435537 0.564463 0.959285 0.0407154 0.852279 0.147721 0.3359 0.6641
8
0.191168 0.808832 0.578015 0.421985 0.743321 0.256679 0.217265 0.782735
8
0.0 1.0 0.0 1.0 1.0 0.0 1.0 0.0
8
0.0 1.0 0.0 1.0 1.0 0.0 1.0 0.0
8
0.0 1.0 0.0 1.0 0.0 1.0 1.0 0.0
8
1.0 0.0 0.0 1.0 1.0 0.0 1.0 0.0
8
0.681854 0.318146 0.973884 0.0261161 0.639663 0.360337 0.017754 0.982246
8
0.830831 0.169169 0.595769 0.404231 0.645269 0.354731 0.0480958 0.951904
8
0.0 1.0 0.0 1.0 0.0 1.0 1.0 0.0
8
0.0 1.0 1.0 0.0 1.0 0.0 1.0 0.0
8
0.0 1.0 1.0 0.0 0.0 1.0 1.0 0.0
4
1.0 0.0 0.0 1.0
8
1.0 0.0 0.0 1.0 1.0 0.0 0.0 1.0
8
1.0 0.0 0.0 1.0 1.0 0.0 0.0 1.0
8
1.0 0.0 0.0 1.0 1.0 0.0 1.0 0.0
8
1.0 0.0 0.0 1.0 1.0 0.0 1.0 0.0
8
1.0 0.0 0.0 1.0 1.0 0.0 1.0 0.0
8
1.0 0.0 0.0 1.0 1.0 0.0 0.0 1.0
8
0.768457 0.231543 0.572323 0.427677 0.500162 0.499838 0.639939 0.360061
8
1.0 0.0 1.0 0.0 0.0 1.0 1.0 0.0
8
1.0 0.0 1.0 0.0 1.0 0.0 0.0 1.0
8
0.0 1.0 0.0 1.0 1.0 0.0 0.0 1.0
8
0.0 1.0 1.0 0.0 0.0 1.0 1.0 0.0
8
0.629748 0.370252 0.930885 0.0691145 0.29292 0.70708 0.314107 0.685893
8
1.0 0.0 0.0 1.0 0.0 1.0 0.0 1.0
8
0.0 1.0 1.0 0.0 0.0 1.0 0.0 1.0
8
0.0 1.0 1.0 0.0 0.0 1.0 1.0 0.0
8
0.147564 0.852436 0.219867 0.780133 0.174077 0.825923 0.744004 0.255996
8
1.0 0.0 0.0 1.0 1.0 0.0 1.0 0.0
8
1.0 0.0 1.0 0.0 0.0 1.0 1.0 0.0
8
1.0 0.0 0.0 1.0 1.0 0.0 1.0 0.0
8
1.0 0.0 0.0 1.0 0.0 1.0 0.0 1.0
4
0.302948 0.697052 0.402162 0.597838
8
0.0 1.0 1.0 0.0 0.0 1.0 0.0 1.0
8
1.0 0.0 0.0 1.0 1.0 0.0 1.0 0.0
8
0.869228 0.130772 0.438651 0.561349 0.282958 0.717042 0.812768 0.187232
8
0.0 1.0 1.0 0.0 0.0 1.0 1.0 0.0
8
1.0 0.0 0.0 1.0 0.0 1.0 0.0 1.0
8
0.0 1.0 0.0 1.0 0.0 1.0 1.0 0.0
8
1.0 0.0 0.0 1.0 1.0 0.0 1.0 0.0
8
1.0 0.0 1.0 0.0 1.0 0.0 0.0 1.0
8
0.0 1.0 0.0 1.0 1.0 0.0 1.0 0.0
8
0.0503869 0.949613 0.328319 0.671681 0.883685 0.116315 0.948132 0.0518682
8
1.0 0.0 1.0 0.0 0.0 1.0 1.0 0.0
8
0.825236 0.174764 0.177289 0.822711 0.636372 0.363628 0.057849 0.942151
8
0.685768 0.314232 0.801063 0.198937 0.155193 0.844807 0.911347 0.088653
8
0.0 1.0 1.0 0.0 0.0 1.0 1.0 0.0
8
1.0 0.0 1.0 0.0 1.0 0.0 0.0 1.0
8
0.0 1.0 1.0 0.0 1.0 0.0 1.0 0.0
8
0.369654 0.630346 0.61023 0.38977 0.372535 0.627465 0.732647 0.267353
8
1.0 0.0 0.0 1.0 0.0 1.0 1.0 0.0
8
0.0 1.0 0.0 1.0 0.0 1.0 1.0 0.0
8
0.0 1.0 1.0 0.0 1.0 0.0 0.0 1.0
4
0.0 1.0 1.0 0.0
8
0.515417 0.484583 0.31977 0.68023 0.743199 0.256801 0.103636 0.896364
8
0.683123 0.316877 0.0201733 0.979827 0.0679234 0.932077 0.571179 0.428821
8
0.0 1.0 1.0 0.0 1.0 0.0 0.0 1.0
8
1.0 0.0 1.0 0.0 0.0 1.0 1.0 0.0
8
1.0 0.0 0.0 1.0 0.0 1.0 0.0 1.0
8
1.0 0.0 0.0 1.0 0.0 1.0 1.0 0.0
8
0.138211 0.861789 0.685324 0.314676 0.554208 0.445792 0.241847 0.758153
8
1.0 0.0 1.0 0.0 0.0 1.0 1.0 0.0
8
0.0 1.0 1.0 0.0 1.0 0.0 1.0 0.0
8
0.361041 0.638959 0.750771 0.249229 0.906882 0.0931178 0.348284 0.651716
8
0.0 1.0 1.0 0.0 0.0 1.0 0.0 1.0
8
0.0 1.0 0.0 1.0 1.0 0.0 0.0 1.0
8
0.646312 0.353688 0.11834 0.88166 0.0160387 0.983961 0.0836402 0.91636
8
0.0 1.0 1.0 0.0 1.0 0.0 1.0 0.0
8
0.704229 0.295771 0.0117336 0.988266 0.974014 0.0259859 0.158909 0.841091
8
0.335055 0.664945 0.90968 0.0903201 0.769253 0.230747 0.683339 0.316661
8
1.0 0.0 0.0 1.0 1.0 0.0 1.0 0.0
8
0.0 1.0 1.0 0.0 0.0 1.0 0.0 1.0
8
0.60471 0.39529 0.772016 0.227984 0.9004 0.0996004 0.96038 0.03962
8
1.0 0.0 1.0 0.0 1.0 0.0 0.0 1.0
4
0.0 1.0 1.0 0.0
8
0.0 1.0 0.0 1.0 0.0 1.0 1.0 0.0
8
0.0333727 0.966627 0.126134 0.873866 0.237563 0.762437 0.647398 0.352602
8
1.0 0.0 1.0 0.0 0.0 1.0 1.0 0.0
8
1.0 0.0 0.0 1.0 1.0 0.0 0.0 1.0
8
1.0 0.0 0.0 1.0 1.0 0.0 0.0 1.0
8
0.0 1.0 1.0 0.0 1.0 0.0 1.0 0.0
8
0.449447 0.550553 0.650529 0.349471 0.904357 0.0956427 0.799481 0.200519
8
0.0 1.0 1.0 0.0 1.0 0.0 1.0 0.0
8
0.0 1.0 0.0 1.0 0.0 1.0 1.0 0.0
8
1.0 0.0 1.0 0.0 0.0 1.0 1.0 0.0
8
1.0 0.0 0.0 1.0 1.0 0.0 1.0 0.0
8
0.0 1.0 0.0 1.0 1.0 0.0 1.0 0.0
8
1.0 0.0 0.0 1.0 0.0 1.0 0.0 1.0
8
1.0 0.0 0.0 1.0 1.0 0.0 1.0 0.0
8
0.0 1.0 1.0 0.0 0.0 1.0 1.0 0.0
8
0.0 1.0 1.0 0.0 1.0 0.0 1.0 0.0
8
1.0 0.0 1.0 0.0 1.0 0.0 0.0 1.0
8
0.79198 0.20802 0.445262 0.554738 0.12654 0.87346 0.475469 0.524531
8
0.727523 0.272477 0.809487 0.190513 0.251036 0.748964 0.127987 0.872013
8
1.0 0.0 1.0 0.0 0.0 1.0 0.0 1.0
4
0.0 1.0 1.0 0.0
8
1.0 0.0 1.0 0.0 0.0 1.0 0.0 1.0
8
0.0583194 0.941681 0.16422 0.83578 0.853004 0.146996 0.221342 0.778658
8
0.0 1.0 1.0 0.0 1.0 0.0 1.0 0.0
8
0.949218 0.0507818 0.212487 0.787513 0.404692 0.595308 0.845188 0.154812
8
0.214179 0.785821 0.0962244 0.903776 0.0679968 0.932003 0.761011 0.238989
8
0.0 1.0 1.0 0.0 0.0 1.0 0.0 1.0
8
0.0 1.0 1.0 0.0 1.0 0.0 0.0 1.0
8
0.0 1.0 1.0 0.0 0.0 1.0 0.0 1.0
8
1.0 0.0 0.0 1.0 1.0 0.0 0.0 1.0
8
0.0 1.0 1.0 0.0 0.0 1.0 0.0 1.0
8
0.0 1.0 1.0 0.0 1.0 0.0 1.0 0.0
8
0.981549 0.0184507 0.136984 0.863016 0.411986 0.588014 0.119817 0.880183
8
1.0 0.0 1.0 0.0 0.0 1.0 0.0 1.0
8
0.441259 0.558741 0.847753 0.152247 0.00716857 0.992831 0.775853 0.224147
8
1.0 0.0 1.0 0.0 1.0 0.0 0.0 1.0
8
1.0 0.0 0.0 1.0 1.0 0.0 0.0 1.0
8
1.0 0.0 0.0 1.0 0.0 1.0 0.0 1.0
8
0.0 1.0 1.0 0.0 0.0 1.0 1.0 0.0
8
0.851667 0.148333 0.463428 0.536572 0.630156 0.369844 0.122553 0.877447
8
0.467676 0.532324 0.563812 0.436188 0.721639 0.278361 0.474844 0.525156
4
1.0 0.0 0.0 1.0
8
0.19085 0.80915 0.398984 0.601016 0.799394 0.200606 0.621325 0.378675
8
1.0 0.0 1.0 0.0 0.0 1.0 0.0 1.0
8
0.517467 0.482533 0.751549 0.248451 0.715583 0.284417 0.590992 0.409008
8
0.49973 0.50027 0.801501 0.198499 0.482842 0.517158 0.403695 0.596305
8
0.0 1.0 0.0 1.0 1.0 0.0 0.0 1.0
8
1.0 0.0 0.0 1.0 1.0 0.0 0.0 1.0
8
1.0 0.0 0.0 1.0 1.0 0.0 1.0 0.0
8
1.0 0.0 0.0 1.0 1.0 0.0 1.0 0.0
8
1.0 0.0 1.0 0.0 0.0 1.0 0.0 1.0
8
0.0 1.0 0.0 1.0 1.0 0.0 0.0 1.0
8
1.0 0.0 0.0 1.0 0.0 1.0 1.0 0.0
8
0.0 1.0 0.0 1.0 0.0 1.0 1.0 0.0
8
1.0 0.0 0.0 1.0 0.0 1.0 1.0 0.0
8
0.0 1.0 0.0 1.0 0.0 1.0 1.0 0.0
8
0.0 1.0 1.0 0.0 1.0 0.0 1.0 0.0
8
0.901547 0.0984528 0.64359 0.35641 0.0531328 0.946867 0.189066 0.810934
8
0.0 1.0 1.0 0.0 0.0 1.0 0.0 1.0
8
0.576788 0.423212 0.433383 0.566617 0.902105 0.0978952 0.291843 0.708157
8
1.0 0.0 0.0 1.0 1.0 0.0 1.0 0.0
8
0.0 1.0 0.0 1.0 0.0 1.0 1.0 0.0
4
0.279545 0.720455 0.660137 0.339863
8
0.0 1.0 0.0 1.0 1.0 0.0 1.0 0.0
8
1.0 0.0 1.0 0.0 0.0 1.0 0.0 1.0
8
0.0 1.0 0.0 1.0 1.0 0.0 0.0 1.0
8
0.0 1.0 1.0 0.0 1.0 0.0 1.0 0.0
8
1.0 0.0 0.0 1.0 0.0 1.0 1.0 0.0
8
1.0 0.0 0.0 1.0 0.0 1.0 0.0 1.0
8
0.560646 0.439354 0.991937 0.00806343 0.272332 0.727668 0.866566 0.133434
8
1.0 0.0 0.0 1.0 0.0 1.0 1.0 0.0
8
0.424514 0.575486 0.579548 0.420452 0.457193 0.542807 0.0979874 0.902013
8
1.0 0.0 1.0 0.0 0.0 1.0 0.0 1.0
8
0.0 1.0 1.0 0.0 1.0 0.0 0.0 1.0
8
1.0 0.0 1.0 0.0 1.0 0.0 0.0 1.0
8
0.542753 0.457247 0.0204505 0.979549 0.882085 0.117915 0.815085 0.184915
8
0.516755 0.483245 0.653841 0.346159 0.248567 0.751433 0.844584 0.155416
8
0.0 1.0 1.0 0.0 0.0 1.0 1.0 0.0
8
1.0 0.0 0.0 1.0 1.0 0.0 1.0 0.0
8
0.0 1.0 1.0 0.0 0.0 1.0 1.0 0.0
8
0.0 1.0 0.0 1.0 1.0 0.0 1.0 0.0
8
0.871314 0.128686 0.467108 0.532892 0.787274 0.212726 0.753399 0.246601
8
0.0 1.0 1.0 0.0 0.0 1.0 0.0 1.0
4
1.0 0.0 0.0 1.0
8
1.0 0.0 1.0 0.0 0.0 1.0 1.0 0.0
8
1.0 0.0 1.0 0.0 0.0 1.0 1.0 0.0
8
0.0 1.0 0.0 1.0 1.0 0.0 0.0 1.0
8
0.0 1.0 1.0 0.0 1.0 0.0 1.0 0.0
8
0.218612 0.781388 0.0048547 0.995145 0.587597 0.412403 0.488766 0.511234
8
0.510454 0.489546 0.603503 0.396497 0.592751 0.407249 0.668168 0.331832
8
0.539989 0.460011 0.517933 0.482067 0.738258 0.261742 0.313094 0.686906
8
0.919567 0.0804328 0.942312 0.0576883 0.624665 0.375335 0.968269 0.0317314
8
1.0 0.0 0.0 1.0 0.0 1.0 1.0 0.0
8
1.0 0.0 1.0 0.0 1.0 0.0 0.0 1.0
8
1.0 0.0 0.0 1.0 1.0 0.0 0.0 1.0
8
0.0703737 0.929626 0.517063 0.482937 0.45396 0.54604 0.663125 0.336875
8
0.0 1.0 1.0 0.0 1.0 0.0 0.0 1.0
8
0.0 1.0 1.0 0.0 0.0 1.0 1.0 0.0
8
0.0 1.0 0.0 1.0 1.0 0.0 0.0 1.0
8
0.0 1.0 1.0 0.0 1.0 0.0 1.0 0.0
8
0.0 1.0 0.0 1.0 1.0 0.0 0.0 1.0
8
1.0 0.0 0.0 1.0 0.0 1.0 0.0 1.0
8
0.0 1.0 1.0 0.0 0.0 1.0 0.0 1.0
8
0.0 1.0 1.0 0.0 1.0 0.0 0.0 1.0
4
1.0 0.0 0.0 1.0
8
1.0 0.0 0.0 1.0 0.0 1.0 0.0 1.0
8
0.0 1.0 1.0 0.0 1.0 0.0 0.0 1.0
8
1.0 0.0 0.0 1.0 0.0 1.0 0.0 1.0
8
0.523732 0.476268 0.96049 0.0395095 0.425342 0.574658 0.624871 0.375129
8
0.197448 0.802552 0.429173 0.570827 0.0241843 0.975816 0.485763 0.514237
8
0.244933 0.755067 0.232597 0.767403 0.441777 0.558223 0.533075 0.466925
8
0.0899626 0.910037 0.909069 0.0909313 0.599492 0.400508 0.91756 0.0824402
8
0.981384 0.0186157 0.326537 0.673463 0.569326 0.430674 0.19794 0.80206
8
1.0 0.0 0.0 1.0 1.0 0.0 1.0 0.0
8
0.0 1.0 0.0 1.0 0.0 1.0 1.0 0.0
8
1.0 0.0 0.0 1.0 0.0 1.0 0.0 1.0
8
0.202736 0.797264 0.589503 0.410497 0.232269 0.767731 0.735812 0.264188
8
1.0 0.0 0.0 1.0 0.0 1.0 1.0 0.0
8
0.0 1.0 0.0 1.0 1.0 0.0 1.0 0.0
8
0.0 1.0 1.0 0.0 0.0 1.0 0.0 1.0
8
0.648211 0.351789 0.0410867 0.958913 0.989983 0.0100172 0.321906 0.678094
8
1.0 0.0 0.0 1.0 1.0 0.0 1.0 0.0
8
0.0 1.0 1.0 0.0 0.0 1.0 1.0 0.0
8
0.638147 0.361853 0.884715 0.115285 0.464833 0.535167 0.736328 0.263672
8
1.0 0.0 1.0 0.0 0.0 1.0 0.0 1.0
4
1.0 0.0 0.0 1.0
8
0.0 1.0 1.0 0.0 0.0 1.0 0.0 1.0
8
0.0 1.0 0.0 1.0 0.0 1.0 1.0 0.0
8
0.26171 0.73829 0.86204 0.13796 0.735664 0.264336 0.811665 0.188335
8
0.0 1.0 1.0 0.0 0.0 1.0 1.0 0.0
8
0.0 1.0 1.0 0.0 1.0 0.0 1.0 0.0
8
1.0 0.0 0.0 1.0 1.0 0.0 0.0 1.0
8
0.0 1.0 1.0 0.0 1.0 0.0 1.0 0.0
8
0.0879726 0.912027 0.0674423 0.932558 0.144386 0.855614 0.942232 0.0577684
8
0.0 1.0 0.0 1.0 1.0 0.0 1.0 0.0
8
0.0 1.0 1.0 0.0 0.0 1.0 0.0 1.0
8
1.0 0.0 0.0 1.0 1.0 0.0 0.0 1.0
8
0.0 1.0 1.0 0.0 0.0 1.0 0.0 1.0
8
1.0 0.0 1.0 0.0 1.0 0.0 0.0 1.0
8
0.283366 0.716634 0.4171 0.5829 0.787348 0.212652 0.612518 0.387482
8
1.0 0.0 0.0 1.0 1.0 0.0 0.0 1.0
8
0.575627 0.424373 0.1004 0.8996 0.526488 0.473512 0.168501 0.831499
8
1.0 0.0 1.0 0.0 1.0 0.0 0.0 1.0
8
0.0 1.0 1.0 0.0 0.0 1.0 1.0 0.0
8
1.0 0.0 0.0 1.0 0.0 1.0 1.0 0.0
8
0.0 1.0 1.0 0.0 0.0 1.0 1.0 0.0
4
0.0 1.0 1.0 0.0
8
0.0 1.0 0.0 1.0 0.0 1.0 1.0 0.0
8
0.0 1.0 1.0 0.0 0.0 1.0 0.0 1.0
8
1.0 0.0 0.0 1.0 1.0 0.0 1.0 0.0
8
1.0 0.0 1.0 0.0 1.0 0.0 0.0 1.0
8
0.0 1.0 1.0 0.0 1.0 0.0 1.0 0.0
8
0.0 1.0 0.0 1.0 1.0 0.0 1.0 0.0
8
1.0 0.0 1.0 0.0 0.0 1.0 0.0 1.0
8
1.0 0.0 1.0 0.0 0.0 1.0 0.0 1.0
8
1.0 0.0 0.0 1.0 1.0 0.0 1.0 0.0
8
0.0 1.0 0.0 1.0 1.0 0.0 1.0 0.0
8
0.0 1.0 0.0 1.0 1.0 0.0 1.0 0.0
8
0.25139 0.74861 0.432451 0.567549 0.415523 0.584477 0.214147 0.785853
8
0.0 1.0 0.0 1.0 1.0 0.0 1.0 0.0
8
0.0 1.0 0.0 1.0 1.0 0.0 0.0 1.0
8
1.0 0.0 0.0 1.0 0.0 1.0 0.0 1.0
8
0.0 1.0 0.0 1.0 1.0 0.0 0.0 1.0
8
0.0 1.0 0.0 1.0 1.0 0.0 1.0 0.0
8
0.0 1.0 0.0 1.0 1.0 0.0 1.0 0.0
8
0.872352 0.127648 0.986423 0.013577 0.176949 0.823051 0.352587 0.647413
8
0.0 1.0 0.0 1.0 1.0 0.0 1.0 0.0